sat
(:eliminated-vars              1
 :max-memory                   18.40
 :memory                       18.17
 :nlsat-conflicts              2
 :nlsat-irrational-assignments 1
 :nlsat-learned-added          2
 :nlsat-propagations           14
 :nlsat-stages                 5
 :num-allocs                   29451
 :rlimit-count                 68098
 :time                         0.12
 :total-time                   0.13)
